(declare-const delta_j Int)
(declare-const delta_param0 Int)
(declare-const delta_param0@width Int)
(declare-const delta_param0@pos Int)
(assert (exists
         ((|param0@width'?1| Int) (|param0@pos'?2| Int) (|param0'?3| Int)
            (|j'?4| Int) (type_err?5 Int) (type_err?6 Int) (float_n?7 Real)
            (m?8 Int) (j?9 Int) (param0?10 Int) (param0@pos?11 Int)
            (param0@width?12 Int))
         (and (<= (- j?9) 0) (< (+ (- m?8) j?9) 0)
                (= (+ (- type_err?5) |param0@width'?1|) 0)
                (= (+ (- type_err?6) |param0@pos'?2|) 0)
                (= (+ (- float_n?7) |param0'?3|) 0)
                (= (+ |j'?4| (- j?9) -1) 0) (= delta_j (+ |j'?4| (- j?9)))
                (= delta_param0 (+ |param0'?3| (- param0?10)))
                (= delta_param0@pos (+ |param0@pos'?2| (- param0@pos?11)))
                (= delta_param0@width (+ |param0@width'?1|
                                           (- param0@width?12))))))
(check-sat)
